c Source: inf-euroroad (2-hop neighborhood of node 39)
c n=22, m=31, circuit_rank=10
c Augmented with 5 edges for Eulerian condition
p sp 22
e 6 20
e 11 15
e 19 20
e 3 16
e 3 13
e 3 20
e 4 5
e 1 13
e 8 21
e 5 6
e 17 18
e 9 10
e 3 9
e 1 2
e 6 17
e 11 20
e 2 3
e 9 22
e 3 17
e 3 4
e 13 14
e 12 13
e 15 16
e 7 8
e 3 8
e 9 17
e 6 7
e 8 10
e 12 14
e 18 19
e 21 22
